NAME : rnd63_20.tsp
TYPE : TSP
DIMENSION : 20
EDGE_WEIGHT_TYPE : EUC_2D
NODE_COORD_SECTION
0 229 938
1 438 59
2 716 957
3 375 376
4 313 462
5 690 133
6 182 926
7 949 535
8 538 487
9 953 477
10 194 276
11 759 145
12 998 497
13 279 117
14 466 281
15 64 786
16 224 342
17 519 603
18 358 551
19 34 900
